n=4;
m=16;
x=[1, 1, 1, 1, 2, 2, 2, 2, 3, 3, 3, 3, 4, 4, 4, 4];
y=[1, 2, 3, 4, 1, 2, 3, 4, 1, 2, 3, 4, 1, 2, 3, 4];
M=15;
N=16;
xs=[0, 1, 1, 1, 1, 2, 1, 2, 1, 3, 1, 3, 2, 3, 2, 3];
ys=[1, 0, 1, -1, 2, 1, -2, -1, 3, 1, -3, -1, 3, 2, -3, -2];
ks=[3, 3, 3, 3, 1, 1, 1, 1, 1, 1, 1, 1, 1, 1, 1, 1];
r90=[13, 9, 5, 1, 14, 10, 6, 2, 15, 11, 7, 3, 16, 12, 8, 4];
r180=[16, 15, 14, 13, 12, 11, 10, 9, 8, 7, 6, 5, 4, 3, 2, 1];
r270=[4, 8, 12, 16, 3, 7, 11, 15, 2, 6, 10, 14, 1, 5, 9, 13];
reflect=[4, 3, 2, 1, 8, 7, 6, 5, 12, 11, 10, 9, 16, 15, 14, 13];
r180_reflect=[13, 14, 15, 16, 9, 10, 11, 12, 5, 6, 7, 8, 1, 2, 3, 4];
r270_reflect=[16, 12, 8, 4, 15, 11, 7, 3, 14, 10, 6, 2, 13, 9, 5, 1];
d_lb=49;
d_ub=63;